p cnf 13 59
-2 1 3 0
-13 2 -9 0
-8 -13 -5 0
-7 -12 -8 0
-2 8 5 0
5 4 7 0
8 -3 -11 0
7 8 1 0
2 -13 5 0
-5 -3 -9 0
11 -3 -1 0
11 4 -12 0
12 8 -4 0
-1 5 3 0
-12 3 9 0
-3 -6 -10 0
-2 13 -8 0
-12 3 6 0
3 5 -10 0
2 3 -1 0
-7 -2 9 0
-2 3 -12 0
-2 -1 -9 0
-10 11 2 0
-13 -3 -12 0
12 1 6 0
3 10 -7 0
-7 8 1 0
-8 7 -5 0
6 -11 -8 0
8 10 11 0
5 -9 -10 0
9 -13 -11 0
10 12 -3 0
-3 10 -5 0
-13 1 -2 0
-5 -8 10 0
2 1 -5 0
6 9 -2 0
-7 11 4 0
-7 -3 -10 0
8 -2 5 0
6 5 -12 0
3 -5 4 0
4 5 9 0
9 -12 6 0
8 -5 -11 0
7 3 -4 0
-7 -13 3 0
-7 10 13 0
-7 -5 6 0
-13 6 1 0
3 5 -8 0
13 3 -7 0
4 10 6 0
-4 -10 -13 0
-1 4 9 0
-12 -10 -5 0
10 -13 -9 0
